outputs/case_372.model.txt
regulator_adjusted_limit = 0
investment_unrated_or_lowrated_shortterm_cost = 0
investment_per_company_stock_and_bond = 4000000
financial_bond_issuance = 2000000
investment_otc_stock_and_equity_cost = 400000
company_total_issued_shares = 100000000
investment_stock_and_equity_cost = 2500000
investment_total_shortterm_and_others_cost = 2500000
accounting_base = 10000000
total_deposits = 8000000
investment_limit_buy_back_shortterm_inclusion = True
investment_limit_unrated_or_lowrated_shortterm = True
sell_back_shortterm_exclusion_applied = True
accounting_base_correctly_calculated = True
accounting_base_deductions = 1
investment_limit_sell_back_shortterm_exclusion = True
investment_limit_otc_stock_and_equity = 1
total_deposits_correctly_calculated = True
buy_back_shortterm_inclusion_applied = True
investment_limit_per_company_stock_and_bond = 1
accounting_base_deductions_applied = True
investment_limit_adjustable = False
investment_limit_shortterm_exceptions = True
total_deposits_definition = True
unrated_shortterm_exceptions_applied = True
accounting_base_definition = True
investment_limit_total_shortterm_and_others = 1
investment_limit_securities_broker_holdings = 1
penalty = False
securities_broker_holdings_over_one_year_included = True
investment_limit_stock_and_equity = 1